CPXPARAM_TimeLimit                               1800
CPXPARAM_Read_DataCheck                          1
CPXPARAM_MIP_Strategy_HeuristicFreq              -1
Parallel mode: deterministic, using up to 8 threads for concurrent optimization.
Tried aggregator 1 time.
LP Presolve eliminated 302 rows and 51300 columns.
Reduced LP has 17678 rows, 3151 columns, and 52156 nonzeros.
Presolve time = 0.01 sec. (17.58 ticks)

Iteration log . . .
Iteration:     1   Dual objective     =           900.000000
Perturbation started.
Iteration:   361   Dual objective     =           900.000000
Iteration:   488   Dual objective     =           900.002740
Initializing dual steep norms . . .
Iteration:   489   Dual objective     =           900.002972
Iteration:   872   Dual objective     =           900.004162
Iteration:  1261   Dual objective     =           900.006854
Iteration:  1726   Dual objective     =           900.009057
Iteration:  2057   Dual objective     =           900.010328
Iteration:  2318   Dual objective     =           900.011415
Iteration:  2574   Dual objective     =           900.014230
Iteration:  2821   Dual objective     =           900.015080
Iteration:  3048   Dual objective     =           900.015880
Iteration:  3271   Dual objective     =           900.016503
Iteration:  3473   Dual objective     =           900.019521
Iteration:  3723   Dual objective     =           900.020641
Iteration:  3980   Dual objective     =           901.267039
Iteration:  4309   Dual objective     =           901.268064
Iteration:  4566   Dual objective     =           901.270513
Iteration:  4889   Dual objective     =           901.271371
Removing perturbation.

Primal simplex solved model.

